WARNING: for repeatability, setting FPU to use double precision
============================[ Problem Statistics ]=============================
|                                                                             |
|  Number of variables:           100                                         |
|  Number of clauses:             449                                         |
|  Parse time:                   0.00 s                                       |
|  Eliminated clauses:           0.00 Mb                                      |
|  Simplification time:          0.00 s                                       |
|                                                                             |
============================[ Search Statistics ]==============================
| Conflicts |          ORIGINAL         |          LEARNT          | Progress |
|           |    Vars  Clauses Literals |    Limit  Clauses Lit/Cl |          |
===============================================================================
|       100 |      99      447     1353 |      163      100      7 |  0.010 % |
|       250 |      99      447     1353 |      180      165      6 |  0.010 % |
===============================================================================
restarts              : 3
conflicts             : 320            (101943 /sec)
decisions             : 388            (0.00 % random) (123606 /sec)
propagations          : 7349           (2341191 /sec)
conflict literals     : 2084           (19.82 % deleted)
Memory used           : 13.00 MB
CPU time              : 0.003139 s

SATISFIABLE
